results/res_prop_muc/res_Cimatti_mathsat_cores/QF_LRA/pd_no_op_accs.induction.smt.smt2.res
unsat
( c106
  c107
  c183
  c184
  c201
  c247
  c361
  c389
  c42
  c43
  c44
  c444
  c448
  c45
  c452
  c456
  c459
  c46
  c464
  c465
  c47
  c478
  c482
  c485
  c489
  c498
  c499
  c503
  c513
  c516
  c518
  c556
  c557
  c93
  c97 )
